<?xml version = "1.0" encoding="UTF-8" standalone="yes"?>
<CPLEXSolution version="1.2">
 <header
   problemName="prueba.lp"
   solutionName="incumbent"
   solutionIndex="-1"
   objectiveValue="288"
   solutionTypeValue="3"
   solutionTypeString="primal"
   solutionStatusValue="101"
   solutionStatusString="integer optimal solution"
   solutionMethodString="mip"
   primalFeasible="1"
   dualFeasible="1"
   MIPNodes="0"
   MIPIterations="1345"
   writeLevel="4"/>
 <quality
   epInt="1.0000000000000001e-05"
   epRHS="9.9999999999999995e-07"
   maxIntInfeas="0"
   maxPrimalInfeas="0"
   maxX="62"
   maxSlack="100058"/>
 <variables>
  <variable name="f#0" index="0" value="2"/>
  <variable name="f#1" index="1" value="2"/>
  <variable name="f#2" index="2" value="2"/>
  <variable name="f#3" index="3" value="2"/>
  <variable name="f#4" index="4" value="2"/>
  <variable name="f#5" index="5" value="2"/>
  <variable name="f#6" index="6" value="25"/>
  <variable name="f#7" index="7" value="25"/>
  <variable name="f#8" index="8" value="27"/>
  <variable name="f#9" index="9" value="40"/>
  <variable name="f#10" index="10" value="10"/>
  <variable name="f#11" index="11" value="10"/>
  <variable name="f#12" index="12" value="50"/>
  <variable name="f#13" index="13" value="10"/>
  <variable name="f#14" index="14" value="62"/>
  <variable name="f#15" index="15" value="17"/>
  <variable name="L#0#1" index="16" value="1"/>
  <variable name="L#1#2" index="17" value="1"/>
  <variable name="L#2#3" index="18" value="1"/>
  <variable name="L#3#4" index="19" value="1"/>
  <variable name="L#4#5" index="20" value="1"/>
  <variable name="L#5#6" index="21" value="1"/>
  <variable name="L#14#10" index="22" value="1"/>
  <variable name="L#15#11" index="23" value="1"/>
  <variable name="s#6" index="30" value="10"/>
  <variable name="s#7" index="31" value="10"/>
  <variable name="s#8" index="32" value="12"/>
  <variable name="s#9" index="33" value="30"/>
  <variable name="s#12" index="36" value="40"/>
  <variable name="s#14" index="38" value="60"/>
  <variable name="s#15" index="39" value="15"/>
  <variable name="L#13#7" index="132" value="1"/>
  <variable name="L#6#7" index="139" value="1"/>
  <variable name="L#10#8" index="151" value="1"/>
  <variable name="L#7#8" index="154" value="1"/>
  <variable name="L#12#9" index="165" value="1"/>
  <variable name="L#11#9" index="166" value="1"/>
  <variable name="L#9#9" index="168" value="1"/>
  <variable name="L#8#9" index="169" value="1"/>
  <variable name="delt#13#6#7" index="1336" value="1"/>
  <variable name="delt#10#7#8" index="1469" value="1"/>
  <variable name="delt#10#8#9" index="1635" value="1"/>
  <variable name="delt#11#8#9" index="1646" value="1"/>
  <variable name="delt#7#9#7" index="1776" value="1"/>
  <variable name="delt#7#9#8" index="1777" value="1"/>
  <variable name="delt#7#9#9" index="1778" value="1"/>
  <variable name="delt#8#9#7" index="1787" value="1"/>
  <variable name="delt#8#9#8" index="1788" value="1"/>
  <variable name="delt#8#9#9" index="1789" value="1"/>
  <variable name="delt#10#9#9" index="1800" value="1"/>
  <variable name="delt#11#9#9" index="1811" value="1"/>
  <variable name="delt#13#9#7" index="1831" value="1"/>
  <variable name="delt#7#12#8" index="2272" value="1"/>
  <variable name="delt#8#12#8" index="2283" value="1"/>
  <variable name="delt#8#12#9" index="2284" value="1"/>
  <variable name="delt#9#12#7" index="2293" value="1"/>
  <variable name="delt#9#12#8" index="2294" value="1"/>
  <variable name="delt#9#12#9" index="2295" value="1"/>
  <variable name="delt#11#12#9" index="2317" value="1"/>
  <variable name="delt#13#12#7" index="2326" value="1"/>
  <variable name="psi#0#0#1#1" index="2848" value="1"/>
  <variable name="psi#0#1#1#2" index="2970" value="1"/>
  <variable name="psi#0#2#1#3" index="3092" value="1"/>
  <variable name="psi#0#3#1#4" index="3214" value="1"/>
  <variable name="psi#0#4#1#5" index="3336" value="1"/>
  <variable name="psi#0#5#1#6" index="3458" value="1"/>
  <variable name="psi#0#6#1#7" index="3580" value="1"/>
  <variable name="psi#0#7#1#8" index="3702" value="1"/>
  <variable name="psi#0#8#1#9" index="3824" value="1"/>
  <variable name="psi#0#9#1#9" index="3945" value="1"/>
  <variable name="psi#0#10#1#8" index="4065" value="1"/>
  <variable name="psi#0#11#1#9" index="4187" value="1"/>
  <variable name="psi#0#12#1#9" index="4308" value="1"/>
  <variable name="psi#0#13#1#7" index="4427" value="1"/>
  <variable name="psi#0#14#1#10" index="4551" value="1"/>
  <variable name="psi#0#15#1#11" index="4673" value="1"/>
  <variable name="psi#1#0#2#1" index="4795" value="1"/>
  <variable name="psi#1#1#2#2" index="4917" value="1"/>
  <variable name="psi#1#2#2#3" index="5039" value="1"/>
  <variable name="psi#1#3#2#4" index="5161" value="1"/>
  <variable name="psi#1#4#2#5" index="5283" value="1"/>
  <variable name="psi#1#5#2#6" index="5405" value="1"/>
  <variable name="psi#1#6#2#7" index="5527" value="1"/>
  <variable name="psi#1#7#2#8" index="5649" value="1"/>
  <variable name="psi#1#8#2#9" index="5771" value="1"/>
  <variable name="psi#1#9#2#9" index="5892" value="1"/>
  <variable name="psi#1#10#2#8" index="6012" value="1"/>
  <variable name="psi#1#11#2#9" index="6134" value="1"/>
  <variable name="psi#1#12#2#9" index="6255" value="1"/>
  <variable name="psi#1#13#2#7" index="6374" value="1"/>
  <variable name="psi#1#14#2#10" index="6498" value="1"/>
  <variable name="psi#1#15#2#11" index="6620" value="1"/>
  <variable name="psi#2#0#3#1" index="6742" value="1"/>
  <variable name="psi#2#1#3#2" index="6864" value="1"/>
  <variable name="psi#2#2#3#3" index="6986" value="1"/>
  <variable name="psi#2#3#3#4" index="7108" value="1"/>
  <variable name="psi#2#4#3#5" index="7230" value="1"/>
  <variable name="psi#2#5#3#6" index="7352" value="1"/>
  <variable name="psi#2#6#3#7" index="7474" value="1"/>
  <variable name="psi#2#7#3#8" index="7596" value="1"/>
  <variable name="psi#2#8#3#9" index="7718" value="1"/>
  <variable name="psi#2#9#3#9" index="7839" value="1"/>
  <variable name="psi#2#10#3#8" index="7959" value="1"/>
  <variable name="psi#2#11#3#9" index="8081" value="1"/>
  <variable name="psi#2#12#3#9" index="8202" value="1"/>
  <variable name="psi#2#13#3#7" index="8321" value="1"/>
  <variable name="psi#2#14#3#10" index="8445" value="1"/>
  <variable name="psi#2#15#3#11" index="8567" value="1"/>
  <variable name="psi#3#0#4#1" index="8689" value="1"/>
  <variable name="psi#3#1#4#2" index="8811" value="1"/>
  <variable name="psi#3#2#4#3" index="8933" value="1"/>
  <variable name="psi#3#3#4#4" index="9055" value="1"/>
  <variable name="psi#3#4#4#5" index="9177" value="1"/>
  <variable name="psi#3#5#4#6" index="9299" value="1"/>
  <variable name="psi#3#6#4#7" index="9421" value="1"/>
  <variable name="psi#3#7#4#8" index="9543" value="1"/>
  <variable name="psi#3#8#4#9" index="9665" value="1"/>
  <variable name="psi#3#9#4#9" index="9786" value="1"/>
  <variable name="psi#3#10#4#8" index="9906" value="1"/>
  <variable name="psi#3#11#4#9" index="10028" value="1"/>
  <variable name="psi#3#12#4#9" index="10149" value="1"/>
  <variable name="psi#3#13#4#7" index="10268" value="1"/>
  <variable name="psi#3#14#4#10" index="10392" value="1"/>
  <variable name="psi#3#15#4#11" index="10514" value="1"/>
  <variable name="psi#4#0#5#1" index="10636" value="1"/>
  <variable name="psi#4#1#5#2" index="10758" value="1"/>
  <variable name="psi#4#2#5#3" index="10880" value="1"/>
  <variable name="psi#4#3#5#4" index="11002" value="1"/>
  <variable name="psi#4#4#5#5" index="11124" value="1"/>
  <variable name="psi#4#5#5#6" index="11246" value="1"/>
  <variable name="psi#4#6#5#7" index="11368" value="1"/>
  <variable name="psi#4#7#5#8" index="11490" value="1"/>
  <variable name="psi#4#8#5#9" index="11612" value="1"/>
  <variable name="psi#4#9#5#9" index="11733" value="1"/>
  <variable name="psi#4#10#5#8" index="11853" value="1"/>
  <variable name="psi#4#11#5#9" index="11975" value="1"/>
  <variable name="psi#4#12#5#9" index="12096" value="1"/>
  <variable name="psi#4#13#5#7" index="12215" value="1"/>
  <variable name="psi#4#14#5#10" index="12339" value="1"/>
  <variable name="psi#4#15#5#11" index="12461" value="1"/>
  <variable name="psi#5#0#6#1" index="12583" value="1"/>
  <variable name="psi#5#1#6#2" index="12705" value="1"/>
  <variable name="psi#5#2#6#3" index="12827" value="1"/>
  <variable name="psi#5#3#6#4" index="12949" value="1"/>
  <variable name="psi#5#4#6#5" index="13071" value="1"/>
  <variable name="psi#5#5#6#6" index="13193" value="1"/>
  <variable name="psi#5#6#6#7" index="13315" value="1"/>
  <variable name="psi#5#7#6#8" index="13437" value="1"/>
  <variable name="psi#5#8#6#9" index="13559" value="1"/>
  <variable name="psi#5#9#6#9" index="13680" value="1"/>
  <variable name="psi#5#10#6#8" index="13800" value="1"/>
  <variable name="psi#5#11#6#9" index="13922" value="1"/>
  <variable name="psi#5#12#6#9" index="14043" value="1"/>
  <variable name="psi#5#13#6#7" index="14162" value="1"/>
  <variable name="psi#5#14#6#10" index="14286" value="1"/>
  <variable name="psi#5#15#6#11" index="14408" value="1"/>
  <variable name="psi#6#0#7#1" index="14530" value="1"/>
  <variable name="psi#6#1#7#2" index="14652" value="1"/>
  <variable name="psi#6#2#7#3" index="14774" value="1"/>
  <variable name="psi#6#3#7#4" index="14896" value="1"/>
  <variable name="psi#6#4#7#5" index="15018" value="1"/>
  <variable name="psi#6#5#7#6" index="15140" value="1"/>
  <variable name="psi#6#6#7#7" index="15262" value="1"/>
  <variable name="psi#6#7#7#8" index="15384" value="1"/>
  <variable name="psi#6#8#7#9" index="15506" value="1"/>
  <variable name="psi#6#9#7#9" index="15627" value="1"/>
  <variable name="psi#6#10#7#8" index="15747" value="1"/>
  <variable name="psi#6#11#7#9" index="15869" value="1"/>
  <variable name="psi#6#12#7#9" index="15990" value="1"/>
  <variable name="psi#6#13#7#7" index="16109" value="1"/>
  <variable name="psi#6#14#7#10" index="16233" value="1"/>
  <variable name="psi#6#15#7#11" index="16355" value="1"/>
  <variable name="psi#7#0#8#1" index="16477" value="1"/>
  <variable name="psi#7#1#8#2" index="16599" value="1"/>
  <variable name="psi#7#2#8#3" index="16721" value="1"/>
  <variable name="psi#7#3#8#4" index="16843" value="1"/>
  <variable name="psi#7#4#8#5" index="16965" value="1"/>
  <variable name="psi#7#5#8#6" index="17087" value="1"/>
  <variable name="psi#7#6#8#7" index="17209" value="1"/>
  <variable name="psi#7#7#8#8" index="17331" value="1"/>
  <variable name="psi#7#8#8#9" index="17453" value="1"/>
  <variable name="psi#7#9#8#9" index="17574" value="1"/>
  <variable name="psi#7#10#8#8" index="17694" value="1"/>
  <variable name="psi#7#11#8#9" index="17816" value="1"/>
  <variable name="psi#7#12#8#9" index="17937" value="1"/>
  <variable name="psi#7#13#8#7" index="18056" value="1"/>
  <variable name="psi#7#14#8#10" index="18180" value="1"/>
  <variable name="psi#7#15#8#11" index="18302" value="1"/>
  <variable name="psi#8#0#9#1" index="18424" value="1"/>
  <variable name="psi#8#1#9#2" index="18546" value="1"/>
  <variable name="psi#8#2#9#3" index="18668" value="1"/>
  <variable name="psi#8#3#9#4" index="18790" value="1"/>
  <variable name="psi#8#4#9#5" index="18912" value="1"/>
  <variable name="psi#8#5#9#6" index="19034" value="1"/>
  <variable name="psi#8#6#9#7" index="19156" value="1"/>
  <variable name="psi#8#7#9#8" index="19278" value="1"/>
  <variable name="psi#8#8#9#9" index="19400" value="1"/>
  <variable name="psi#8#9#9#9" index="19521" value="1"/>
  <variable name="psi#8#10#9#8" index="19641" value="1"/>
  <variable name="psi#8#11#9#9" index="19763" value="1"/>
  <variable name="psi#8#12#9#9" index="19884" value="1"/>
  <variable name="psi#8#13#9#7" index="20003" value="1"/>
  <variable name="psi#8#14#9#10" index="20127" value="1"/>
  <variable name="psi#8#15#9#11" index="20249" value="1"/>
  <variable name="psi#9#0#9#1" index="20360" value="1"/>
  <variable name="psi#9#1#9#2" index="20482" value="1"/>
  <variable name="psi#9#2#9#3" index="20604" value="1"/>
  <variable name="psi#9#3#9#4" index="20726" value="1"/>
  <variable name="psi#9#4#9#5" index="20848" value="1"/>
  <variable name="psi#9#5#9#6" index="20970" value="1"/>
  <variable name="psi#9#6#9#7" index="21092" value="1"/>
  <variable name="psi#9#7#9#8" index="21214" value="1"/>
  <variable name="psi#9#8#9#9" index="21336" value="1"/>
  <variable name="psi#9#9#9#9" index="21457" value="1"/>
  <variable name="psi#9#10#9#8" index="21577" value="1"/>
  <variable name="psi#9#11#9#9" index="21699" value="1"/>
  <variable name="psi#9#12#9#9" index="21820" value="1"/>
  <variable name="psi#9#13#9#7" index="21939" value="1"/>
  <variable name="psi#9#14#9#10" index="22063" value="1"/>
  <variable name="psi#9#15#9#11" index="22185" value="1"/>
  <variable name="psi#10#0#8#1" index="22285" value="1"/>
  <variable name="psi#10#1#8#2" index="22407" value="1"/>
  <variable name="psi#10#2#8#3" index="22529" value="1"/>
  <variable name="psi#10#3#8#4" index="22651" value="1"/>
  <variable name="psi#10#4#8#5" index="22773" value="1"/>
  <variable name="psi#10#5#8#6" index="22895" value="1"/>
  <variable name="psi#10#6#8#7" index="23017" value="1"/>
  <variable name="psi#10#7#8#8" index="23139" value="1"/>
  <variable name="psi#10#8#8#9" index="23261" value="1"/>
  <variable name="psi#10#9#8#9" index="23382" value="1"/>
  <variable name="psi#10#10#8#8" index="23502" value="1"/>
  <variable name="psi#10#11#8#9" index="23624" value="1"/>
  <variable name="psi#10#12#8#9" index="23745" value="1"/>
  <variable name="psi#10#13#8#7" index="23864" value="1"/>
  <variable name="psi#10#14#8#10" index="23988" value="1"/>
  <variable name="psi#10#15#8#11" index="24110" value="1"/>
  <variable name="psi#11#0#9#1" index="24232" value="1"/>
  <variable name="psi#11#1#9#2" index="24354" value="1"/>
  <variable name="psi#11#2#9#3" index="24476" value="1"/>
  <variable name="psi#11#3#9#4" index="24598" value="1"/>
  <variable name="psi#11#4#9#5" index="24720" value="1"/>
  <variable name="psi#11#5#9#6" index="24842" value="1"/>
  <variable name="psi#11#6#9#7" index="24964" value="1"/>
  <variable name="psi#11#7#9#8" index="25086" value="1"/>
  <variable name="psi#11#8#9#9" index="25208" value="1"/>
  <variable name="psi#11#9#9#9" index="25329" value="1"/>
  <variable name="psi#11#10#9#8" index="25449" value="1"/>
  <variable name="psi#11#11#9#9" index="25571" value="1"/>
  <variable name="psi#11#12#9#9" index="25692" value="1"/>
  <variable name="psi#11#13#9#7" index="25811" value="1"/>
  <variable name="psi#11#14#9#10" index="25935" value="1"/>
  <variable name="psi#11#15#9#11" index="26057" value="1"/>
  <variable name="psi#12#0#9#1" index="26168" value="1"/>
  <variable name="psi#12#1#9#2" index="26290" value="1"/>
  <variable name="psi#12#2#9#3" index="26412" value="1"/>
  <variable name="psi#12#3#9#4" index="26534" value="1"/>
  <variable name="psi#12#4#9#5" index="26656" value="1"/>
  <variable name="psi#12#5#9#6" index="26778" value="1"/>
  <variable name="psi#12#6#9#7" index="26900" value="1"/>
  <variable name="psi#12#7#9#8" index="27022" value="1"/>
  <variable name="psi#12#8#9#9" index="27144" value="1"/>
  <variable name="psi#12#9#9#9" index="27265" value="1"/>
  <variable name="psi#12#10#9#8" index="27385" value="1"/>
  <variable name="psi#12#11#9#9" index="27507" value="1"/>
  <variable name="psi#12#12#9#9" index="27628" value="1"/>
  <variable name="psi#12#13#9#7" index="27747" value="1"/>
  <variable name="psi#12#14#9#10" index="27871" value="1"/>
  <variable name="psi#12#15#9#11" index="27993" value="1"/>
  <variable name="psi#13#0#7#1" index="28082" value="1"/>
  <variable name="psi#13#1#7#2" index="28204" value="1"/>
  <variable name="psi#13#2#7#3" index="28326" value="1"/>
  <variable name="psi#13#3#7#4" index="28448" value="1"/>
  <variable name="psi#13#4#7#5" index="28570" value="1"/>
  <variable name="psi#13#5#7#6" index="28692" value="1"/>
  <variable name="psi#13#6#7#7" index="28814" value="1"/>
  <variable name="psi#13#7#7#8" index="28936" value="1"/>
  <variable name="psi#13#8#7#9" index="29058" value="1"/>
  <variable name="psi#13#9#7#9" index="29179" value="1"/>
  <variable name="psi#13#10#7#8" index="29299" value="1"/>
  <variable name="psi#13#11#7#9" index="29421" value="1"/>
  <variable name="psi#13#12#7#9" index="29542" value="1"/>
  <variable name="psi#13#13#7#7" index="29661" value="1"/>
  <variable name="psi#13#14#7#10" index="29785" value="1"/>
  <variable name="psi#13#15#7#11" index="29907" value="1"/>
  <variable name="psi#14#0#10#1" index="30051" value="1"/>
  <variable name="psi#14#1#10#2" index="30173" value="1"/>
  <variable name="psi#14#2#10#3" index="30295" value="1"/>
  <variable name="psi#14#3#10#4" index="30417" value="1"/>
  <variable name="psi#14#4#10#5" index="30539" value="1"/>
  <variable name="psi#14#5#10#6" index="30661" value="1"/>
  <variable name="psi#14#6#10#7" index="30783" value="1"/>
  <variable name="psi#14#7#10#8" index="30905" value="1"/>
  <variable name="psi#14#8#10#9" index="31027" value="1"/>
  <variable name="psi#14#9#10#9" index="31148" value="1"/>
  <variable name="psi#14#10#10#8" index="31268" value="1"/>
  <variable name="psi#14#11#10#9" index="31390" value="1"/>
  <variable name="psi#14#12#10#9" index="31511" value="1"/>
  <variable name="psi#14#13#10#7" index="31630" value="1"/>
  <variable name="psi#14#14#10#10" index="31754" value="1"/>
  <variable name="psi#14#15#10#11" index="31876" value="1"/>
  <variable name="psi#15#0#11#1" index="31998" value="1"/>
  <variable name="psi#15#1#11#2" index="32120" value="1"/>
  <variable name="psi#15#2#11#3" index="32242" value="1"/>
  <variable name="psi#15#3#11#4" index="32364" value="1"/>
  <variable name="psi#15#4#11#5" index="32486" value="1"/>
  <variable name="psi#15#5#11#6" index="32608" value="1"/>
  <variable name="psi#15#6#11#7" index="32730" value="1"/>
  <variable name="psi#15#7#11#8" index="32852" value="1"/>
  <variable name="psi#15#8#11#9" index="32974" value="1"/>
  <variable name="psi#15#9#11#9" index="33095" value="1"/>
  <variable name="psi#15#10#11#8" index="33215" value="1"/>
  <variable name="psi#15#11#11#9" index="33337" value="1"/>
  <variable name="psi#15#12#11#9" index="33458" value="1"/>
  <variable name="psi#15#13#11#7" index="33577" value="1"/>
  <variable name="psi#15#14#11#10" index="33701" value="1"/>
  <variable name="psi#15#15#11#11" index="33823" value="1"/>
 </variables>
 <objectiveValues>
  <objective index="0" name="fobj" value="288"/>
 </objectiveValues>
</CPLEXSolution>
